;test regex [-]?[_a-z]|[^\\0-\\237]|\\\\[0-9a-f]{1,6}(\\r\\n|[ \\n\\r\\t\\f])?\\\\[^\\n\\r\\f0-9a-f][_a-z0-9-]|[^\\0-\\237]|\\\\[0-9a-f]{1,6}(\\r\\n|[ \\n\\r\\t\\f])?\\\\[^\\n\\r\\f0-9a-f]*
(declare-const X String)
(assert (str.in_re X (re.union (re.union (re.union (re.union (re.++ (re.opt (str.to_re "-")) (re.union (str.to_re "_") (re.range "a" "z"))) (re.inter (re.diff re.allchar (str.to_re "\\")) (re.inter (re.diff re.allchar (re.range "0" "\\")) (re.diff re.allchar (str.to_re "237"))))) (re.++ (str.to_re "\\") (re.++ (str.to_re "\\") (re.++ ((_ re.loop 1 6) (re.union (re.range "0" "9") (re.range "a" "f"))) (re.++ (re.opt (re.union (re.++ (str.to_re "\\") (re.++ (str.to_re "r") (re.++ (str.to_re "\\") (str.to_re "n")))) (re.union (str.to_re " ") (re.union (str.to_re "\\") (re.union (str.to_re "n") (re.union (str.to_re "\\") (re.union (str.to_re "r") (re.union (str.to_re "\\") (re.union (str.to_re "t") (re.union (str.to_re "\\") (str.to_re "f"))))))))))) (re.++ (str.to_re "\\") (re.++ (str.to_re "\\") (re.++ (re.inter (re.diff re.allchar (str.to_re "\\")) (re.inter (re.diff re.allchar (str.to_re "n")) (re.inter (re.diff re.allchar (str.to_re "\\")) (re.inter (re.diff re.allchar (str.to_re "r")) (re.inter (re.diff re.allchar (str.to_re "\\")) (re.inter (re.diff re.allchar (str.to_re "f")) (re.inter (re.diff re.allchar (re.range "0" "9")) (re.diff re.allchar (re.range "a" "f"))))))))) (re.union (str.to_re "_") (re.union (re.range "a" "z") (re.union (re.range "0" "9") (str.to_re "-")))))))))))) (re.inter (re.diff re.allchar (str.to_re "\\")) (re.inter (re.diff re.allchar (re.range "0" "\\")) (re.diff re.allchar (str.to_re "237"))))) (re.++ (str.to_re "\\") (re.++ (str.to_re "\\") (re.++ ((_ re.loop 1 6) (re.union (re.range "0" "9") (re.range "a" "f"))) (re.++ (re.opt (re.union (re.++ (str.to_re "\\") (re.++ (str.to_re "r") (re.++ (str.to_re "\\") (str.to_re "n")))) (re.union (str.to_re " ") (re.union (str.to_re "\\") (re.union (str.to_re "n") (re.union (str.to_re "\\") (re.union (str.to_re "r") (re.union (str.to_re "\\") (re.union (str.to_re "t") (re.union (str.to_re "\\") (str.to_re "f"))))))))))) (re.++ (str.to_re "\\") (re.++ (str.to_re "\\") (re.* (re.inter (re.diff re.allchar (str.to_re "\\")) (re.inter (re.diff re.allchar (str.to_re "n")) (re.inter (re.diff re.allchar (str.to_re "\\")) (re.inter (re.diff re.allchar (str.to_re "r")) (re.inter (re.diff re.allchar (str.to_re "\\")) (re.inter (re.diff re.allchar (str.to_re "f")) (re.inter (re.diff re.allchar (re.range "0" "9")) (re.diff re.allchar (re.range "a" "f")))))))))))))))))))
; sanitize danger characters:  < > ' " &
(assert (not (str.in_re X (re.++ re.all (re.union (str.to_re "\u{3c}") (str.to_re "\u{3e}") (str.to_re "\u{27}") (str.to_re "\u{22}") (str.to_re "\u{26}")) re.all))))
(assert (< 9 (str.len X)))
(check-sat)
(get-model)